c Reduced graph for p13 generated by Cyril Grelier
p edge 34 160
e 1 2
e 1 3
e 1 4
e 1 5
e 1 9
e 1 13
e 1 17
e 1 18
e 1 23
e 1 29
e 2 3
e 2 4
e 2 6
e 2 10
e 2 14
e 2 17
e 2 18
e 2 24
e 2 30
e 3 4
e 3 7
e 3 11
e 3 15
e 3 17
e 3 18
e 3 25
e 3 31
e 4 8
e 4 12
e 4 16
e 4 17
e 4 18
e 4 26
e 4 32
e 5 6
e 5 7
e 5 8
e 5 9
e 5 13
e 5 19
e 5 20
e 5 23
e 5 29
e 6 7
e 6 8
e 6 10
e 6 14
e 6 19
e 6 20
e 6 24
e 6 30
e 7 8
e 7 11
e 7 15
e 7 19
e 7 20
e 7 25
e 7 31
e 8 12
e 8 16
e 8 19
e 8 20
e 8 26
e 8 32
e 9 10
e 9 11
e 9 12
e 9 13
e 9 21
e 9 22
e 9 23
e 9 29
e 10 11
e 10 12
e 10 14
e 10 21
e 10 22
e 10 24
e 10 30
e 11 12
e 11 15
e 11 21
e 11 22
e 11 25
e 11 31
e 12 16
e 12 21
e 12 22
e 12 26
e 12 32
e 13 14
e 13 15
e 13 16
e 13 23
e 13 27
e 13 28
e 13 29
e 14 15
e 14 16
e 14 24
e 14 27
e 14 28
e 14 30
e 15 16
e 15 25
e 15 27
e 15 28
e 15 31
e 16 26
e 16 27
e 16 28
e 16 32
e 17 18
e 17 19
e 17 21
e 17 27
e 17 34
e 18 20
e 18 22
e 18 28
e 18 33
e 19 20
e 19 21
e 19 27
e 19 34
e 20 22
e 20 28
e 20 33
e 21 22
e 21 27
e 21 34
e 22 28
e 22 33
e 23 24
e 23 25
e 23 26
e 23 29
e 23 33
e 24 25
e 24 26
e 24 30
e 24 33
e 25 26
e 25 31
e 25 33
e 26 32
e 26 33
e 27 28
e 27 34
e 28 33
e 29 30
e 29 31
e 29 32
e 29 34
e 30 31
e 30 32
e 30 34
e 31 32
e 31 34
e 32 34
